[[98, 97, 96, 87, 95, 94, 86, 85, 76, 84, 93, 92, 91, 83], [82, 73, 74, 75, 67, 68, 66, 65, 59, 58, 57, 56, 64, 55], [46, 47, 48, 39, 40, 38, 37, 28, 29, 30, 31], [21, 22, 19, 20, 11, 10, 2, 3, 4, 12, 13, 23, 15, 14, 5, 6, 7], [8, 9, 18, 17, 16, 24, 25, 26, 27, 35, 36, 44], [45, 34, 43, 42, 33, 32, 41, 50, 49, 60, 51, 52, 53, 54, 61, 62], [63, 72, 81, 71, 80, 70, 69, 78, 77, 79, 88, 89, 90, 99]]